50 8
777 880
668 192
833 256
44 643
179 574
650 480
567 488
202 253
250 269
277 511
221 516
344 922
389 509
773 716
700 708
908 786
575 544
763 744
578 714
256 537
646 549
845 350
157 729
451 126
506 163
770 363
840 386
779 878
563 637
489 166
715 276
287 560
163 482
369 428
480 623
390 191
650 813
537 737
691 559
28 745
685 898
495 650
103 270
509 285
719 629
812 658
743 230
596 699
83 682
515 101
